CMD:
./solvers/bin/cadical --plain --no-reduce -t 1600 ./data/cnfs//qspiflash_qflexpress_divfive-p107/qspiflash_qflexpress_divfive-p107.50.cnf

c --- [ banner ] -------------------------------------------------------------
c 
c CaDiCaL SAT Solver
c Copyright (c) 2016-2024
c A. Biere, M. Fleury, N. Froleyks, K. Fazekas, F. Pollitt, T. Faller
c JKU Linz, University of Freiburg, TU Wien
c 
c Version 2.1.3 5296d3d2a9bf48c154ab2acb5e44625776d821bf
c g++ (Gentoo 12.3.1_p20230526 p2) 12.3.1 20230526 -Wall -Wextra -O3 -DNDEBUG
c Sat Aug 9 07:26:21 PDT 2025 Linux cedar2.int.cedar.computecanada.ca 5.14.0-362.24.2.el9_3.x86_64 x86_64
c 
c --- [ limit ] --------------------------------------------------------------
c 
c setting time limit to 1600 seconds real time (due to '-t 1600')
c 
c --- [ parsing input ] ------------------------------------------------------
c 
c reading DIMACS file from './data/cnfs//qspiflash_qflexpress_divfive-p107/qspiflash_qflexpress_divfive-p107.50.cnf'
c opening file to read './data/cnfs//qspiflash_qflexpress_divfive-p107/qspiflash_qflexpress_divfive-p107.50.cnf'
c found 'p cnf 135338 394310' header
c parsed 394310 clauses in 0.06 seconds process time
c 
c --- [ options ] ------------------------------------------------------------
c 
c   --compact=false                (different from default 'true')
c   --decompose=false              (different from default 'true')
c   --deduplicate=false            (different from default 'true')
c   --elim=false                   (different from default 'true')
c   --probe=false                  (different from default 'true')
c   --reduce=false                 (different from default 'true')
c   --subsume=false                (different from default 'true')
c   --ternary=false                (different from default 'true')
c   --transred=false               (different from default 'true')
c   --vivify=false                 (different from default 'true')
c 
c --- [ solving ] ------------------------------------------------------------
c 
c time measured in process time since initialization
c 
c  seconds  reductions  redundant  irredundant
c         MB    restarts       trail       variables
c          level   conflicts       glue          remaining
c 
c *  0.06 66  0 0   0    0    0  0% 0 379660 126599 94%
c {  0.08 67  0 0   0    0    0  0% 0 379660 126599 94%
c i  0.09 68 49 0   0    6    5 16% 1 379660 126580 94%
c i  0.10 68 96 0   3   28   24 19% 10 379660 126544 94%
c i  0.11 68 62 0   6  249  230 18% 5 379660 126455 93%
c i  0.14 68 45 0  21  681  615 17% 4 379660 126449 93%
c i  0.14 68 44 0  25  703  635 17% 4 379660 126445 93%
c i  0.16 68 39 0  32  902  809 16% 4 379660 126440 93%
c i  0.16 68 39 0  33  934  837 16% 4 379660 126436 93%
c }  0.16 68 37 0  43 1003  900 16% 4 379660 126436 93%
c [  0.16 68  0 0  43 1003  900  0% 0 379660 126436 93%
c O  0.18 68 579 0  43 1004  901 56% 2 379660 126436 93%
c i  0.19 68 393 0  43 1383 1226 22% 3 379660 126435 93%
c i  0.20 69 387 0  43 1480 1310 21% 3 379660 126434 93%
c i  0.20 69 382 0  43 1564 1374 20% 3 379660 126287 93%
c i  0.20 69 382 0  43 1565 1374 20% 3 379660 126193 93%
c ]  0.20 69 381 0  43 1580 1375 20% 3 379660 125209 93%
c 0  0.20 69 381 0  43 1580 1375 20% 3 379660 125209 93%
c 
c --- [ result ] -------------------------------------------------------------
c 
s UNSATISFIABLE
c 
c --- [ run-time profiling ] -------------------------------------------------
c 
c process time taken by individual solving procedures
c (percentage relative to process time for solving)
c 
c         0.15   99.92% search
c         0.08   54.25% unstable
c         0.06   40.32% parse
c         0.04   28.13% stable
c         0.03   17.50% lucky
c         0.00    0.00% simplify
c   =================================
c         0.15   71.06% solve
c 
c last line shows process time for solving
c (percentage relative to total process time)
c 
c --- [ statistics ] ---------------------------------------------------------
c 
c chronological:               714        45.19 %  of conflicts
c conflicts:                  1580     10870.84    per second
c decisions:                  4821     33169.81    per second
c fixed:                     10128         7.48 %  of all variables
c learned:                    1489        94.24 %  per conflict
c learned_lits:              19389       100.00 %  learned literals
c minimized:                     0         0.00 %  learned literals
c shrunken:                   2678        13.81 %  learned literals
c minishrunken:               2077        10.71 %  learned literals
c otfs:                         28         1.77 %  of conflict
c propagations:            2391632        16.46 M  per second
c rephased:                      1      1580.00    interval
c restarts:                     43        36.74    interval
c stabilizing:                   1        36.46 %  of conflicts
c subsumed:                    100         0.03 %  of all clauses
c strengthened:                 27         0.01 %  of all clauses
c 
c seconds are measured in process time for solving
c 
c --- [ resources ] ----------------------------------------------------------
c 
c total process time since initialization:         0.20    seconds
c total real time since initialization:            0.21    seconds
c maximum resident set size of process:           66.23    MB
c 
c --- [ shutting down ] ------------------------------------------------------
c 
c exit 20
